161 5
10 10 10 10 10 

0 0 0 0 0 0 5 2 24 46 68 80 
0 0 0 0 0 0 10 3 4 5 8 9 10 12 14 21 22 
1 0 0 4 5 0 2 16 6 
6 0 0 9 6 0 2 16 7 
8 0 0 6 9 0 3 18 17 11 
7 0 0 8 3 0 3 20 17 13 
6 0 0 6 5 0 2 19 11 
9 0 0 6 7 0 2 17 13 
9 0 0 7 7 0 2 18 16 
2 0 0 7 9 0 2 16 15 
5 0 0 6 10 0 1 13 
1 0 0 7 10 0 1 13 
3 0 0 9 10 0 1 15 
3 0 0 8 7 0 2 15 100 
2 0 0 10 7 0 1 23 
5 0 0 9 10 0 1 23 
1 0 0 10 9 0 1 23 
4 0 0 8 7 0 1 23 
6 0 0 6 10 0 1 23 
8 0 0 8 6 0 1 23 
7 0 0 8 3 0 1 23 
4 0 0 8 10 0 1 23 
0 0 0 0 0 0 1 126 
0 0 0 0 0 0 11 25 27 28 31 38 39 40 41 42 43 44 
8 0 2 0 4 0 3 37 36 26 
8 0 4 0 4 0 2 35 29 
3 0 8 0 5 0 3 34 33 32 
1 0 7 0 9 0 3 34 33 89 
5 0 10 0 9 0 1 30 
9 0 9 0 8 0 1 32 
4 0 10 0 8 0 1 33 
2 0 7 0 6 0 1 45 
6 0 7 0 10 0 1 45 
9 0 8 0 8 0 1 45 
9 0 10 0 7 0 1 45 
1 0 6 0 6 0 1 45 
1 0 9 0 10 0 1 45 
5 0 8 0 10 0 1 45 
5 0 8 0 6 0 1 45 
7 0 6 0 10 0 1 45 
9 0 9 0 5 0 1 45 
8 0 6 0 7 0 1 45 
5 0 7 0 10 0 1 45 
1 0 9 0 8 0 1 45 
0 0 0 0 0 0 1 126 
0 0 0 0 0 0 6 47 48 49 50 51 52 
4 0 0 3 3 0 6 66 63 62 57 55 53 
5 0 0 6 9 0 6 65 64 63 62 59 56 
9 0 0 7 8 0 6 65 63 62 59 55 90 
2 0 0 6 9 0 4 65 63 62 53 
9 0 0 5 8 0 7 65 64 63 62 61 59 58 
1 0 0 9 9 0 3 63 62 54 
4 0 0 10 7 0 4 64 61 59 58 
7 0 0 4 5 0 3 61 59 58 
8 0 0 7 10 0 1 56 
1 0 0 6 7 0 2 61 58 
4 0 0 6 9 0 2 61 58 
7 0 0 8 7 0 1 60 
3 0 0 10 5 0 1 60 
9 0 0 9 3 0 1 67 
7 0 0 10 8 0 1 67 
5 0 0 10 6 0 1 67 
9 0 0 10 10 0 1 67 
9 0 0 8 10 0 1 67 
10 0 0 8 7 0 1 67 
9 0 0 8 10 0 1 67 
0 0 0 0 0 0 1 126 
0 0 0 0 0 0 3 69 70 74 
1 1 0 0 0 0 3 77 72 71 
6 10 0 0 0 0 2 73 71 
4 10 0 0 0 0 3 78 76 75 
9 6 0 0 0 0 3 78 76 75 
3 6 0 0 0 0 3 77 76 75 
8 10 0 0 0 0 3 77 76 75 
10 10 0 0 0 0 1 79 
8 9 0 0 0 0 1 79 
10 7 0 0 0 0 1 79 
6 6 0 0 0 0 1 79 
0 0 0 0 0 0 2 102 114 
0 0 0 0 0 0 6 81 82 83 84 85 86 
6 0 0 2 0 6 5 100 98 91 88 87 
3 0 0 6 0 3 4 99 98 93 88 
9 0 0 10 0 10 6 99 98 97 96 93 90 
7 0 0 5 0 9 6 99 98 97 96 93 90 
9 0 0 10 0 7 3 99 98 87 
9 0 0 7 0 7 3 98 96 89 
3 0 0 8 0 6 5 97 96 95 93 92 
2 0 0 4 0 10 3 97 96 90 
8 0 0 5 0 8 3 95 93 92 
7 0 0 10 0 4 2 95 92 
10 0 0 10 0 10 2 95 92 
10 0 0 4 0 5 1 94 
10 0 0 10 0 10 1 94 
3 0 0 10 0 6 1 101 
4 0 0 6 0 10 1 101 
3 0 0 5 0 10 1 101 
1 0 0 10 0 5 1 101 
8 0 0 9 0 10 1 101 
9 0 0 9 0 4 1 101 
9 0 0 10 0 10 1 101 
0 0 0 0 0 0 1 126 
0 0 0 0 0 0 4 103 104 105 106 
6 0 0 0 0 2 4 112 111 108 107 
4 0 0 0 0 8 3 110 108 107 
8 0 0 0 0 10 2 111 108 
10 0 0 0 0 8 2 110 108 
9 0 0 0 0 7 1 109 
6 0 0 0 0 7 1 113 
6 0 0 0 0 8 1 113 
1 0 0 0 0 10 1 113 
7 0 0 0 0 5 1 113 
7 0 0 0 0 10 1 113 
0 0 0 0 0 0 1 126 
0 0 0 0 0 0 5 115 116 117 119 120 
2 0 0 6 0 0 3 123 122 118 
3 0 0 4 0 0 3 123 122 121 
6 0 0 6 0 0 2 123 121 
6 0 0 10 0 0 1 121 
3 0 0 7 0 0 1 124 
10 0 0 5 0 0 1 122 
5 0 0 10 0 0 1 125 
4 0 0 8 0 0 1 125 
1 0 0 10 0 0 1 125 
8 0 0 9 0 0 1 125 
0 0 0 0 0 0 1 126 
0 0 0 0 0 0 4 127 128 130 136 
8 0 0 0 1 0 2 135 129 
9 0 0 0 8 0 4 134 133 132 131 
5 0 0 0 10 0 3 133 132 131 
4 0 0 0 7 0 3 134 132 131 
6 0 0 0 10 0 1 137 
1 0 0 0 7 0 1 137 
4 0 0 0 5 0 1 137 
7 0 0 0 10 0 1 137 
8 0 0 0 10 0 1 137 
3 0 0 0 7 0 1 137 
0 0 0 0 0 0 1 138 
0 0 0 0 0 0 6 139 140 142 143 147 148 
3 0 0 0 0 3 2 146 144 
8 0 0 0 0 9 1 141 
2 0 0 0 0 5 1 144 
1 0 0 0 0 6 1 145 
3 0 0 0 0 10 1 144 
4 0 0 0 0 7 1 149 
3 0 0 0 0 10 1 149 
10 0 0 0 0 8 1 149 
4 0 0 0 0 7 1 149 
5 0 0 0 0 10 1 149 
0 0 0 0 0 0 1 150 
0 0 0 0 0 0 6 151 152 153 155 159 160 
7 0 0 0 5 0 2 157 154 
9 0 0 0 7 0 2 158 156 
4 0 0 0 7 0 2 157 156 
10 0 0 0 10 0 1 156 
8 0 0 0 8 0 1 156 
2 0 0 0 8 0 1 161 
3 0 0 0 4 0 1 161 
1 0 0 0 10 0 1 161 
1 0 0 0 6 0 1 161 
7 0 0 0 10 0 1 161 
0 0 0 0 0 0 0 
